Set parameter TokenServer to value "hpc-licenses.hpcc.usc.edu"
Set parameter TimeLimit to value 3600
Gurobi Optimizer version 9.5.1 build v9.5.1rc2 (linux64)
Thread count: 20 physical cores, 20 logical processors, using up to 20 threads
Optimize a model with 6007 rows, 4529 columns and 24534 nonzeros
Model fingerprint: 0x3e99865b
Variable types: 4506 continuous, 23 integer (23 binary)
Coefficient statistics:
  Matrix range     [1e+00, 1e+00]
  Objective range  [2e-04, 1e+00]
  Bounds range     [1e+00, 1e+00]
  RHS range        [1e+00, 1e+02]
Found heuristic solution: objective 255.9175540
Presolve removed 1520 rows and 1515 columns
Presolve time: 0.07s
Presolved: 4487 rows, 3014 columns, 21975 nonzeros
Variable types: 2994 continuous, 20 integer (20 binary)

Root relaxation: objective 2.712318e+02, 3124 iterations, 0.14 seconds (0.14 work units)

    Nodes    |    Current Node    |     Objective Bounds      |     Work
 Expl Unexpl |  Obj  Depth IntInf | Incumbent    BestBd   Gap | It/Node Time

     0     0  271.23183    0    2  255.91755  271.23183  5.98%     -    0s
H    0     0                     260.4504954  271.23183  4.14%     -    0s
     0     0  271.16795    0    2  260.45050  271.16795  4.11%     -    0s
H    0     0                     263.5479023  271.02639  2.84%     -    0s
     0     0  271.02639    0    2  263.54790  271.02639  2.84%     -    0s
     0     0  271.00943    0    2  263.54790  271.00943  2.83%     -    0s
     0     0  270.63327    0    3  263.54790  270.63327  2.69%     -    0s
     0     0  270.21222    0    4  263.54790  270.21222  2.53%     -    0s
     0     0  270.21222    0    4  263.54790  270.21222  2.53%     -    0s
     0     0  270.20418    0    4  263.54790  270.20418  2.53%     -    0s
     0     0  270.20418    0    4  263.54790  270.20418  2.53%     -    0s
     0     0  270.20418    0    4  263.54790  270.20418  2.53%     -    0s
     0     0  270.20418    0    4  263.54790  270.20418  2.53%     -    0s
     0     0  270.20418    0    4  263.54790  270.20418  2.53%     -    0s
     0     0  270.20418    0    4  263.54790  270.20418  2.53%     -    0s
     0     0  270.09074    0    4  263.54790  270.09074  2.48%     -    0s
     0     0  270.09074    0    4  263.54790  270.09074  2.48%     -    0s
     0     0  270.09074    0    2  263.54790  270.09074  2.48%     -    0s
     0     0  270.09074    0    4  263.54790  270.09074  2.48%     -    0s
     0     0  270.09074    0    4  263.54790  270.09074  2.48%     -    0s
     0     0  270.09074    0    4  263.54790  270.09074  2.48%     -    0s
H    0     0                     268.6179320  270.09074  0.55%     -    0s
     0     0  270.08886    0    3  268.61793  270.08886  0.55%     -    0s
     0     0  270.08886    0    4  268.61793  270.08886  0.55%     -    1s
     0     0  270.08886    0    2  268.61793  270.08886  0.55%     -    1s
     0     0  270.08886    0    2  268.61793  270.08886  0.55%     -    1s
     0     0  270.08886    0    2  268.61793  270.08886  0.55%     -    1s
     0     0  270.08886    0    2  268.61793  270.08886  0.55%     -    2s
     0     0  270.08886    0    2  268.61793  270.08886  0.55%     -    2s
     0     0  270.08886    0    2  268.61793  270.08886  0.55%     -    2s
     0     0  270.08886    0    2  268.61793  270.08886  0.55%     -    2s
     0     0  270.08886    0    2  268.61793  270.08886  0.55%     -    2s
     0     0  270.08886    0    2  268.61793  270.08886  0.55%     -    2s
     0     0  270.08886    0    3  268.61793  270.08886  0.55%     -    2s
     0     0  270.08886    0    4  268.61793  270.08886  0.55%     -    2s
     0     0  270.08886    0    4  268.61793  270.08886  0.55%     -    2s
     0     0  270.08886    0    4  268.61793  270.08886  0.55%     -    2s
     0     0  270.08886    0    4  268.61793  270.08886  0.55%     -    2s
     0     0  270.08886    0    4  268.61793  270.08886  0.55%     -    2s
H    0     0                     269.4385937  270.08886  0.24%     -    2s
     0     0  269.97100    0    4  269.43859  269.97100  0.20%     -    2s
     0     0  269.97100    0    4  269.43859  269.97100  0.20%     -    2s
     0     0  269.96756    0    2  269.43859  269.96756  0.20%     -    2s
     0     0  269.96756    0    2  269.43859  269.96756  0.20%     -    2s
     0     2  269.96756    0    2  269.43859  269.96756  0.20%     -    3s

Cutting planes:
  Gomory: 2
  MIR: 665
  Flow cover: 4
  RLT: 9
  Relax-and-lift: 17

Explored 7 nodes (8196 simplex iterations) in 4.14 seconds (1.95 work units)
Thread count was 20 (of 20 available processors)

Solution count 5: 269.439 268.618 263.548 ... 255.918

Optimal solution found (tolerance 1.00e-04)
Best objective 2.694385937430e+02, best bound 2.694385937430e+02, gap 0.0000%



#########node  1
V1.7
#########node  2
0.14965986394557823,0.8503401360544218
#########node  3
1.0,0.0


Total Solving Time 4.554461240768433
obj value 269.4385937429713
Policy Regret train (Sum) 9.912030792665206
Best Treatment Found train (%) 57.599999999999994
treatment classification acc train (%) 35.6
Policy Regret test (Sum) 38.72832714295484
Best Treatment Found test (%) 81.04
treatment classification acc test (%) 35.17
